34503909
34503980
34503982
34503983
34503988
34503989
34504008
34504009
34504020
34504021
34504657
34504658
34504659
34504665
34504692
34504744
34504748
34504749
34504845
34504880
34505086
34505088
34505094
34505132
34506153
